N = 8;
H = 6;
T = 2;

avail = array3d(1..N, 1..H, 1..T, [2, 9, 1, 10, 6, 4, 2, 10, 8, 1, 4, 1, 10, 10, 2, 2, 8, 1, 3, 5, 6, 7, 2, 2, 7, 4, 0, 7, 0, 3, 10, 7, 6, 6, 2, 4, 7, 7, 5, 3, 6, 9, 10, 6, 9, 0, 10, 3, 10, 6, 7, 5, 9, 8, 10, 6, 9, 5, 6, 6, 4, 3, 6, 9, 1, 5, 7, 0, 7, 2, 4, 4, 1, 8, 4, 4, 1, 2, 5, 2, 10, 7, 9, 5, 0, 6, 7, 9, 7, 6, 4, 3, 5, 4, 0, 2]);

r = array2d(1..H, 1..T, [1, 2, 2, 0, 2, 4, 1, 2, 4, 3, 3, 2]);
